(set-logic HORN)
(declare-fun state (Int (Array Int Int) (Array Int Int) (Array Int Int) (Array Int Int) Int Int (Array Int Int) (Array Int Int) Int Int Int Int Int Int Int Int Int Int Int Int Bool Bool Bool Bool Bool (Array Int Int)) Bool)
(assert (forall ((|hhv_ULTIMATE.start_ULTIMATE.startEXIT_0_Int| Int) (|hhv_ULTIMATE.start_ULTIMATE.startEXIT_1_Array_Int_Int| (Array Int Int)) (|hhv_ULTIMATE.start_ULTIMATE.startEXIT_2_Array_Int_Int| (Array Int Int)) (|hhv_ULTIMATE.start_ULTIMATE.startEXIT_3_Array_Int_Array_Int_Int| (Array Int Int)) (|hhv_ULTIMATE.start_ULTIMATE.startEXIT_4_Array_Int_Array_Int_Int| (Array Int Int)) (|hhv_ULTIMATE.start_ULTIMATE.startEXIT_5_Int| Int) (|hhv_ULTIMATE.start_ULTIMATE.startEXIT_6_Int| Int) (|hhv_ULTIMATE.start_ULTIMATE.startEXIT_7_Array_Int_Int| (Array Int Int)) (|hhv_ULTIMATE.start_ULTIMATE.startEXIT_8_Array_Int_Int| (Array Int Int)) (|hhv_ULTIMATE.start_ULTIMATE.startEXIT_9_Int| Int) (|hhv_ULTIMATE.start_ULTIMATE.startEXIT_10_Int| Int) (|hhv_ULTIMATE.start_ULTIMATE.startEXIT_11_Int| Int) (|hhv_ULTIMATE.start_ULTIMATE.startEXIT_12_Int| Int) (|hhv_ULTIMATE.start_ULTIMATE.startEXIT_13_Int| Int) (|hhv_ULTIMATE.start_ULTIMATE.startEXIT_14_Int| Int) (|hhv_ULTIMATE.start_ULTIMATE.startEXIT_15_Int| Int) (|hhv_ULTIMATE.start_ULTIMATE.startEXIT_16_Int| Int) (|hhv_ULTIMATE.start_ULTIMATE.startEXIT_17_Int| Int) (|hhv_ULTIMATE.start_ULTIMATE.startEXIT_18_Int| Int) (|hhv_ULTIMATE.start_ULTIMATE.startEXIT_19_Int| Int) (|hhv_ULTIMATE.start_ULTIMATE.startEXIT_20_Int| Int) (|hbv_ULTIMATE.start_L2-1_21_Bool| Bool) (|.loc.5| Bool) (|.loc.6| Bool) (|.loc.7| Bool) (|.loc.8| Bool) (|hbv_ULTIMATE.start_L-1_1_Array_Int_Int| (Array Int Int)) (|.x.529| Int) (|.x.527| (Array Int Int)) (|.x.525| Int) (|.x.523| (Array Int Int)) (|.x.519| Int) (|.x.521| (Array Int Int)) (|.x.520| (Array Int Int)) (|hhv_ULTIMATE.start_ULTIMATE.startEXIT_21_Bool| Bool) (|.x.530| Int) (|.x.531| Int) (|.x.532| Int) (|.x.534| Int) (|.loc.10| Bool) (|.x.535| Int) (|.x.533| Int) (|.x.538| Int) (|.loc.11| Bool) (|.loc.9| Bool) (|.x.539| Int) (|.x.537| Int) (|.x.536| Int) (|.x.522| (Array Int Int)) (|.loc.12| Bool) (|.x.528| Int) (|.x.524| Int) (|.x.526| (Array Int Int)) (|.xtv.1| (Array Int Int))) (=> (and (and (and (and .loc.5 (not .loc.6)) (not .loc.7)) (not .loc.8)) (and (and (and (and (and (= hhv_ULTIMATE.start_ULTIMATE.startEXIT_1_Array_Int_Int hhv_ULTIMATE.start_ULTIMATE.startEXIT_2_Array_Int_Int) (= hhv_ULTIMATE.start_ULTIMATE.startEXIT_7_Array_Int_Int hhv_ULTIMATE.start_ULTIMATE.startEXIT_8_Array_Int_Int)) (= hhv_ULTIMATE.start_ULTIMATE.startEXIT_5_Int hhv_ULTIMATE.start_ULTIMATE.startEXIT_6_Int)) (not hbv_ULTIMATE.start_L2-1_21_Bool)) (= hhv_ULTIMATE.start_ULTIMATE.startEXIT_3_Array_Int_Array_Int_Int hhv_ULTIMATE.start_ULTIMATE.startEXIT_4_Array_Int_Array_Int_Int)) (= hhv_ULTIMATE.start_ULTIMATE.startEXIT_9_Int hhv_ULTIMATE.start_ULTIMATE.startEXIT_10_Int))) (state |hhv_ULTIMATE.start_ULTIMATE.startEXIT_0_Int| |hhv_ULTIMATE.start_ULTIMATE.startEXIT_1_Array_Int_Int| |hhv_ULTIMATE.start_ULTIMATE.startEXIT_2_Array_Int_Int| |hhv_ULTIMATE.start_ULTIMATE.startEXIT_3_Array_Int_Array_Int_Int| |hhv_ULTIMATE.start_ULTIMATE.startEXIT_4_Array_Int_Array_Int_Int| |hhv_ULTIMATE.start_ULTIMATE.startEXIT_5_Int| |hhv_ULTIMATE.start_ULTIMATE.startEXIT_6_Int| |hhv_ULTIMATE.start_ULTIMATE.startEXIT_7_Array_Int_Int| |hhv_ULTIMATE.start_ULTIMATE.startEXIT_8_Array_Int_Int| |hhv_ULTIMATE.start_ULTIMATE.startEXIT_9_Int| |hhv_ULTIMATE.start_ULTIMATE.startEXIT_10_Int| |hhv_ULTIMATE.start_ULTIMATE.startEXIT_11_Int| |hhv_ULTIMATE.start_ULTIMATE.startEXIT_12_Int| |hhv_ULTIMATE.start_ULTIMATE.startEXIT_13_Int| |hhv_ULTIMATE.start_ULTIMATE.startEXIT_14_Int| |hhv_ULTIMATE.start_ULTIMATE.startEXIT_15_Int| |hhv_ULTIMATE.start_ULTIMATE.startEXIT_16_Int| |hhv_ULTIMATE.start_ULTIMATE.startEXIT_17_Int| |hhv_ULTIMATE.start_ULTIMATE.startEXIT_18_Int| |hhv_ULTIMATE.start_ULTIMATE.startEXIT_19_Int| |hhv_ULTIMATE.start_ULTIMATE.startEXIT_20_Int| |hbv_ULTIMATE.start_L2-1_21_Bool| |.loc.5| |.loc.6| |.loc.7| |.loc.8| |hbv_ULTIMATE.start_L-1_1_Array_Int_Int|))))
(assert (forall ((|hhv_ULTIMATE.start_ULTIMATE.startEXIT_0_Int| Int) (|hhv_ULTIMATE.start_ULTIMATE.startEXIT_1_Array_Int_Int| (Array Int Int)) (|hhv_ULTIMATE.start_ULTIMATE.startEXIT_2_Array_Int_Int| (Array Int Int)) (|hhv_ULTIMATE.start_ULTIMATE.startEXIT_3_Array_Int_Array_Int_Int| (Array Int Int)) (|hhv_ULTIMATE.start_ULTIMATE.startEXIT_4_Array_Int_Array_Int_Int| (Array Int Int)) (|hhv_ULTIMATE.start_ULTIMATE.startEXIT_5_Int| Int) (|hhv_ULTIMATE.start_ULTIMATE.startEXIT_6_Int| Int) (|hhv_ULTIMATE.start_ULTIMATE.startEXIT_7_Array_Int_Int| (Array Int Int)) (|hhv_ULTIMATE.start_ULTIMATE.startEXIT_8_Array_Int_Int| (Array Int Int)) (|hhv_ULTIMATE.start_ULTIMATE.startEXIT_9_Int| Int) (|hhv_ULTIMATE.start_ULTIMATE.startEXIT_10_Int| Int) (|hhv_ULTIMATE.start_ULTIMATE.startEXIT_11_Int| Int) (|hhv_ULTIMATE.start_ULTIMATE.startEXIT_12_Int| Int) (|hhv_ULTIMATE.start_ULTIMATE.startEXIT_13_Int| Int) (|hhv_ULTIMATE.start_ULTIMATE.startEXIT_14_Int| Int) (|hhv_ULTIMATE.start_ULTIMATE.startEXIT_15_Int| Int) (|hhv_ULTIMATE.start_ULTIMATE.startEXIT_16_Int| Int) (|hhv_ULTIMATE.start_ULTIMATE.startEXIT_17_Int| Int) (|hhv_ULTIMATE.start_ULTIMATE.startEXIT_18_Int| Int) (|hhv_ULTIMATE.start_ULTIMATE.startEXIT_19_Int| Int) (|hhv_ULTIMATE.start_ULTIMATE.startEXIT_20_Int| Int) (|hbv_ULTIMATE.start_L2-1_21_Bool| Bool) (|.loc.5| Bool) (|.loc.6| Bool) (|.loc.7| Bool) (|.loc.8| Bool) (|hbv_ULTIMATE.start_L-1_1_Array_Int_Int| (Array Int Int)) (|.x.529| Int) (|.x.527| (Array Int Int)) (|.x.525| Int) (|.x.523| (Array Int Int)) (|.x.519| Int) (|.x.521| (Array Int Int)) (|.x.520| (Array Int Int)) (|hhv_ULTIMATE.start_ULTIMATE.startEXIT_21_Bool| Bool) (|.x.530| Int) (|.x.531| Int) (|.x.532| Int) (|.x.534| Int) (|.loc.10| Bool) (|.x.535| Int) (|.x.533| Int) (|.x.538| Int) (|.loc.11| Bool) (|.loc.9| Bool) (|.x.539| Int) (|.x.537| Int) (|.x.536| Int) (|.x.522| (Array Int Int)) (|.loc.12| Bool) (|.x.528| Int) (|.x.524| Int) (|.x.526| (Array Int Int)) (|.xtv.1| (Array Int Int))) (=> (and (state |hhv_ULTIMATE.start_ULTIMATE.startEXIT_0_Int| |hhv_ULTIMATE.start_ULTIMATE.startEXIT_1_Array_Int_Int| |hhv_ULTIMATE.start_ULTIMATE.startEXIT_2_Array_Int_Int| |hhv_ULTIMATE.start_ULTIMATE.startEXIT_3_Array_Int_Array_Int_Int| |hhv_ULTIMATE.start_ULTIMATE.startEXIT_4_Array_Int_Array_Int_Int| |hhv_ULTIMATE.start_ULTIMATE.startEXIT_5_Int| |hhv_ULTIMATE.start_ULTIMATE.startEXIT_6_Int| |hhv_ULTIMATE.start_ULTIMATE.startEXIT_7_Array_Int_Int| |hhv_ULTIMATE.start_ULTIMATE.startEXIT_8_Array_Int_Int| |hhv_ULTIMATE.start_ULTIMATE.startEXIT_9_Int| |hhv_ULTIMATE.start_ULTIMATE.startEXIT_10_Int| |hhv_ULTIMATE.start_ULTIMATE.startEXIT_11_Int| |hhv_ULTIMATE.start_ULTIMATE.startEXIT_12_Int| |hhv_ULTIMATE.start_ULTIMATE.startEXIT_13_Int| |hhv_ULTIMATE.start_ULTIMATE.startEXIT_14_Int| |hhv_ULTIMATE.start_ULTIMATE.startEXIT_15_Int| |hhv_ULTIMATE.start_ULTIMATE.startEXIT_16_Int| |hhv_ULTIMATE.start_ULTIMATE.startEXIT_17_Int| |hhv_ULTIMATE.start_ULTIMATE.startEXIT_18_Int| |hhv_ULTIMATE.start_ULTIMATE.startEXIT_19_Int| |hhv_ULTIMATE.start_ULTIMATE.startEXIT_20_Int| |hbv_ULTIMATE.start_L2-1_21_Bool| |.loc.5| |.loc.6| |.loc.7| |.loc.8| |hbv_ULTIMATE.start_L-1_1_Array_Int_Int|) (let ((.def_37 (not .loc.6))) (let ((.def_39 (not .loc.7))) (let ((.def_41 (not .loc.8))) (let ((.def_73 (= hhv_ULTIMATE.start_ULTIMATE.startEXIT_1_Array_Int_Int .x.520))) (let ((.def_77 (= hhv_ULTIMATE.start_ULTIMATE.startEXIT_11_Int .x.530))) (let ((.def_80 (= hhv_ULTIMATE.start_ULTIMATE.startEXIT_12_Int .x.531))) (let ((.def_83 (= hhv_ULTIMATE.start_ULTIMATE.startEXIT_13_Int .x.532))) (let ((.def_86 (= hhv_ULTIMATE.start_ULTIMATE.startEXIT_15_Int .x.534))) (let ((.def_88 (not .loc.5))) (let ((.def_99 (= hbv_ULTIMATE.start_L2-1_21_Bool hhv_ULTIMATE.start_ULTIMATE.startEXIT_21_Bool))) (let ((.def_107 (= hhv_ULTIMATE.start_ULTIMATE.startEXIT_14_Int 0))) (let ((.def_111 (and .def_83 (and .def_80 (and .def_73 .def_77))))) (let ((.def_112 (and .def_86 .def_111))) (let ((.def_116 (not .loc.10))) (let ((.def_122 (= hhv_ULTIMATE.start_ULTIMATE.startEXIT_16_Int .x.535))) (let ((.def_124 (= hhv_ULTIMATE.start_ULTIMATE.startEXIT_14_Int .x.533))) (let ((.def_127 (= hhv_ULTIMATE.start_ULTIMATE.startEXIT_19_Int .x.538))) (let ((.def_132 (not .loc.9))) (let ((.def_144 (select hhv_ULTIMATE.start_ULTIMATE.startEXIT_3_Array_Int_Array_Int_Int hhv_ULTIMATE.start_ULTIMATE.startEXIT_13_Int))) (let ((.def_148 (<= 100000 hhv_ULTIMATE.start_ULTIMATE.startEXIT_20_Int))) (let ((.def_160 (not .loc.11))) (let ((.def_165 (= hhv_ULTIMATE.start_ULTIMATE.startEXIT_20_Int .x.539))) (let ((.def_167 (= hhv_ULTIMATE.start_ULTIMATE.startEXIT_18_Int .x.537))) (let ((.def_177 (and .def_86 (and .def_111 .def_124)))) (let ((.def_193 (and .def_127 (and .def_167 (and .def_122 .def_177))))) (let ((.def_204 (and hbv_ULTIMATE.start_L2-1_21_Bool .def_73))) (let ((.def_213 (and .def_165 (and .def_127 (and .def_167 (and .def_122 (and .def_86 (and .def_124 (and .def_83 (and .def_80 (and .def_77 .def_204))))))))))) (let ((.def_224 (and .def_165 .def_193))) (let ((.def_225 (and .loc.6 .def_224))) (let ((.def_246 (and .def_37 (and .def_88 (and .loc.8 .def_224))))) (let ((.def_252 (<= 100000 hhv_ULTIMATE.start_ULTIMATE.startEXIT_17_Int))) (let ((.def_253 (or hbv_ULTIMATE.start_L2-1_21_Bool .def_252))) (let ((.def_257 (= hhv_ULTIMATE.start_ULTIMATE.startEXIT_17_Int .x.536))) (let ((.def_259 (= hhv_ULTIMATE.start_ULTIMATE.startEXIT_3_Array_Int_Array_Int_Int .x.522))) (let ((.def_263 (+ hhv_ULTIMATE.start_ULTIMATE.startEXIT_12_Int (* 4 hhv_ULTIMATE.start_ULTIMATE.startEXIT_17_Int)))) (let ((.def_267 (not .def_252))) (let ((.def_271 (= (+ hhv_ULTIMATE.start_ULTIMATE.startEXIT_17_Int (* (- 1) .x.536)) (- 1)))) (let ((.def_291 (and .def_122 (and .def_86 (and .def_124 (and .def_83 (and .def_80 (and .def_77 (and .def_73 .def_259))))))))) (let ((.def_295 (and .def_165 (and .def_127 (and .def_167 (and .def_257 .def_291)))))) (let ((.def_304 (not .loc.12))) (let ((.def_318 (and .def_165 (and .def_127 (and .def_167 (and .def_257 (and .def_122 (and .def_86 (and .def_124 (and .def_83 (and .def_80 (and .def_77 (and .def_204 .def_259))))))))))))) (let ((.def_319 (and .loc.7 .def_318))) (let ((.def_332 (and .loc.5 (and .def_165 (and .def_127 (and .def_167 .def_291)))))) (let ((.def_333 (and .loc.6 .def_332))) (let ((.def_341 (= .x.536 0))) (let ((.def_342 (or hbv_ULTIMATE.start_L2-1_21_Bool .def_341))) (let ((.def_345 (and .loc.6 .def_318))) (let ((.def_355 (and .loc.6 .def_295))) (and (and (= hhv_ULTIMATE.start_ULTIMATE.startEXIT_10_Int .x.529) (and (= hhv_ULTIMATE.start_ULTIMATE.startEXIT_8_Array_Int_Int .x.527) (and (= hhv_ULTIMATE.start_ULTIMATE.startEXIT_6_Int .x.525) (and (= hhv_ULTIMATE.start_ULTIMATE.startEXIT_4_Array_Int_Array_Int_Int .x.523) (and (= hhv_ULTIMATE.start_ULTIMATE.startEXIT_0_Int .x.519) (= hhv_ULTIMATE.start_ULTIMATE.startEXIT_2_Array_Int_Int .x.521)))))) (or (and (or (or (or (or (or (or (or (or (or (or (or (or (or (or (and (or (and (or (or (or (or (or (or (and (or (and (or (and (or (and (and (and (and (and (and .def_73 hhv_ULTIMATE.start_ULTIMATE.startEXIT_21_Bool) .def_77) .def_80) .def_83) .def_86) .def_88) (and (or hbv_ULTIMATE.start_L2-1_21_Bool (and (= .x.534 0) (= .x.520 (store hhv_ULTIMATE.start_ULTIMATE.startEXIT_1_Array_Int_Int hhv_ULTIMATE.start_ULTIMATE.startEXIT_13_Int 0)))) (and (and .loc.5 (or hhv_ULTIMATE.start_ULTIMATE.startEXIT_21_Bool (= .x.530 .x.534))) .def_99))) (and (and .loc.7 .def_37) .loc.10)) (and (or hbv_ULTIMATE.start_L2-1_21_Bool .def_107) (and .def_39 (and (and .def_99 (and .loc.6 (and .loc.5 .def_112))) .def_116)))) (and (and (and (and .def_122 .def_124) .def_127) .loc.11) .def_132)) (and (or hbv_ULTIMATE.start_L2-1_21_Bool (and (= .x.533 .x.538) (and (= .x.538 (ite (= .x.535 45) 1 0)) (and (= .x.535 (select .def_144 (+ hhv_ULTIMATE.start_ULTIMATE.startEXIT_12_Int (* 4 hhv_ULTIMATE.start_ULTIMATE.startEXIT_20_Int)))) (not .def_148))))) (and (and .def_39 (and .def_99 (and .loc.10 (and .loc.9 (and .def_88 (and .loc.6 .def_112)))))) .def_160))) (and .loc.8 (and .def_165 .def_167))) (and (or hhv_ULTIMATE.start_ULTIMATE.startEXIT_21_Bool (= (+ hhv_ULTIMATE.start_ULTIMATE.startEXIT_20_Int (* (- 1) .x.539)) (- 1))) (and .def_41 (and .def_160 (and .def_39 (and .def_99 (and .def_132 (and .loc.10 (and .def_37 (and .def_88 (and .def_127 .def_177))))))))))) (and (or hbv_ULTIMATE.start_L2-1_21_Bool (= .x.539 0)) (and .def_160 (and .def_39 (and .def_99 (and .def_132 (and .loc.10 (and .def_37 (and .loc.8 (and .loc.5 .def_193)))))))))) (and .def_39 (and .def_116 (and .def_99 (and .loc.11 (and .loc.9 (and .def_88 (and .loc.8 (and .loc.6 .def_213))))))))) (and (or hbv_ULTIMATE.start_L2-1_21_Bool .def_148) (and .def_39 (and .def_116 (and .def_99 (and .loc.11 (and .loc.9 (and .def_88 (and .loc.8 .def_225))))))))) (and .def_160 (and .def_39 (and .def_116 (and .def_99 (and .loc.9 (and .def_37 (and .def_88 (and .loc.8 .def_213))))))))) (and (and .def_160 (and .def_39 (and .def_116 (and .def_99 (and .loc.9 .def_246))))) .def_253)) (and .def_257 .def_259)) (and (or hbv_ULTIMATE.start_L2-1_21_Bool (and (and (= .x.522 (store hhv_ULTIMATE.start_ULTIMATE.startEXIT_3_Array_Int_Array_Int_Int hhv_ULTIMATE.start_ULTIMATE.startEXIT_13_Int (store .def_144 .def_263 45))) .def_267) .def_271)) (and .def_160 (and .def_39 (and .def_116 (and .def_99 (and .def_132 .def_246))))))) .loc.12) (and (or hbv_ULTIMATE.start_L2-1_21_Bool (not .def_107)) (and (and .def_160 (and .def_39 (and .def_116 (and .def_99 (and .def_132 (and .loc.8 (and .loc.6 (and .loc.5 .def_295)))))))) .def_304))) (and .def_304 (and .def_160 (and .def_116 (and .def_99 (and .def_132 (and .def_37 (and .def_88 (and .loc.8 .def_319))))))))) (and (and .def_41 (and .def_160 (and .def_116 (and .def_99 (and .def_132 (and .loc.12 (and .loc.7 .def_333))))))) .def_342)) (and .def_304 (and .def_41 (and .def_99 (and .loc.11 (and .loc.10 (and .loc.9 (and .def_88 (and .loc.7 .def_345))))))))) (and .def_304 (and .def_253 (and .def_41 (and .def_99 (and .loc.11 (and .loc.10 (and .loc.9 (and .def_88 (and .loc.7 .def_355)))))))))) (and (or hbv_ULTIMATE.start_L2-1_21_Bool (and .def_271 (and .def_267 (= .x.522 (store hhv_ULTIMATE.start_ULTIMATE.startEXIT_3_Array_Int_Array_Int_Int hhv_ULTIMATE.start_ULTIMATE.startEXIT_13_Int (store .def_144 .def_263 44)))))) (and .def_304 (and .def_41 (and .def_99 (and .def_132 (and .loc.11 (and .loc.10 (and .def_88 (and .loc.7 .def_225)))))))))) (and .def_342 (and .def_304 (and .def_41 (and .def_99 (and .def_132 (and .loc.11 (and .loc.10 (and .def_37 (and .loc.7 .def_332)))))))))) (and .def_304 (and .def_41 (and .def_116 (and .def_99 (and .loc.11 (and .loc.9 (and .def_37 (and .def_88 .def_319))))))))) (and .def_304 (and .def_253 (and .def_41 (and .def_116 (and .def_99 (and .loc.11 (and .loc.9 (and .def_37 (and .def_88 (and .loc.7 .def_295))))))))))) (and (or hbv_ULTIMATE.start_L2-1_21_Bool (and .def_271 (and .def_267 (= .x.522 (store hhv_ULTIMATE.start_ULTIMATE.startEXIT_3_Array_Int_Array_Int_Int hhv_ULTIMATE.start_ULTIMATE.startEXIT_13_Int (store .def_144 .def_263 43)))))) (and .def_304 (and .def_41 (and .def_116 (and .def_99 (and .def_132 (and .loc.11 (and .def_37 (and .def_88 (and .loc.7 .def_224))))))))))) (and .def_342 (and .def_304 (and .def_41 (and .def_39 (and .def_116 (and .def_99 (and .def_132 (and .loc.11 .def_333))))))))) (and .def_304 (and .def_41 (and .def_160 (and .def_39 (and .def_99 (and .loc.10 (and .loc.9 (and .def_88 .def_345))))))))) (and .def_304 (and .def_253 (and .def_41 (and .def_160 (and .def_39 (and .def_99 (and .loc.10 (and .loc.9 (and .def_88 .def_355)))))))))) (and (or hbv_ULTIMATE.start_L2-1_21_Bool (and (= .x.522 (store hhv_ULTIMATE.start_ULTIMATE.startEXIT_3_Array_Int_Array_Int_Int hhv_ULTIMATE.start_ULTIMATE.startEXIT_13_Int (store .def_144 .def_263 42))) (and .def_267 .def_271))) (and .def_304 (and .def_41 (and .def_160 (and .def_39 (and .def_99 (and .def_132 (and .loc.10 (and .def_88 .def_225)))))))))) (and (= hhv_ULTIMATE.start_ULTIMATE.startEXIT_9_Int .x.528) (and (= hhv_ULTIMATE.start_ULTIMATE.startEXIT_5_Int .x.524) (= hhv_ULTIMATE.start_ULTIMATE.startEXIT_7_Array_Int_Int .x.526)))) (and (or hbv_ULTIMATE.start_L2-1_21_Bool (and (and (= .x.524 0) (= .x.528 0)) (= hbv_ULTIMATE.start_L-1_1_Array_Int_Int (store hhv_ULTIMATE.start_ULTIMATE.startEXIT_1_Array_Int_Int 0 0)))) (and (or hhv_ULTIMATE.start_ULTIMATE.startEXIT_21_Bool (and (and (and .def_341 (and (and (and (= .x.526 (store hhv_ULTIMATE.start_ULTIMATE.startEXIT_7_Array_Int_Int .x.532 400000)) (= (select hbv_ULTIMATE.start_L-1_1_Array_Int_Int .x.532) 0)) (not (= .x.532 0))) (= .x.520 (store hbv_ULTIMATE.start_L-1_1_Array_Int_Int .x.532 1)))) (not (<= .x.519 .x.532))) (= .x.531 0))) (and .def_304 (and .def_41 (and .def_160 (and .def_39 (and .def_99 (and .def_132 (and .loc.10 (and .def_37 (and .loc.5 (and .def_127 (and .def_124 (and .def_77 .def_259))))))))))))))))))))))))))))))))))))))))))))))))))))))))))))))))) (state |.x.519| |.x.520| |.x.521| |.x.522| |.x.523| |.x.524| |.x.525| |.x.526| |.x.527| |.x.528| |.x.529| |.x.530| |.x.531| |.x.532| |.x.533| |.x.534| |.x.535| |.x.536| |.x.537| |.x.538| |.x.539| |hhv_ULTIMATE.start_ULTIMATE.startEXIT_21_Bool| |.loc.9| |.loc.10| |.loc.11| |.loc.12| |.xtv.1|))))
(assert (forall ((|hhv_ULTIMATE.start_ULTIMATE.startEXIT_0_Int| Int) (|hhv_ULTIMATE.start_ULTIMATE.startEXIT_1_Array_Int_Int| (Array Int Int)) (|hhv_ULTIMATE.start_ULTIMATE.startEXIT_2_Array_Int_Int| (Array Int Int)) (|hhv_ULTIMATE.start_ULTIMATE.startEXIT_3_Array_Int_Array_Int_Int| (Array Int Int)) (|hhv_ULTIMATE.start_ULTIMATE.startEXIT_4_Array_Int_Array_Int_Int| (Array Int Int)) (|hhv_ULTIMATE.start_ULTIMATE.startEXIT_5_Int| Int) (|hhv_ULTIMATE.start_ULTIMATE.startEXIT_6_Int| Int) (|hhv_ULTIMATE.start_ULTIMATE.startEXIT_7_Array_Int_Int| (Array Int Int)) (|hhv_ULTIMATE.start_ULTIMATE.startEXIT_8_Array_Int_Int| (Array Int Int)) (|hhv_ULTIMATE.start_ULTIMATE.startEXIT_9_Int| Int) (|hhv_ULTIMATE.start_ULTIMATE.startEXIT_10_Int| Int) (|hhv_ULTIMATE.start_ULTIMATE.startEXIT_11_Int| Int) (|hhv_ULTIMATE.start_ULTIMATE.startEXIT_12_Int| Int) (|hhv_ULTIMATE.start_ULTIMATE.startEXIT_13_Int| Int) (|hhv_ULTIMATE.start_ULTIMATE.startEXIT_14_Int| Int) (|hhv_ULTIMATE.start_ULTIMATE.startEXIT_15_Int| Int) (|hhv_ULTIMATE.start_ULTIMATE.startEXIT_16_Int| Int) (|hhv_ULTIMATE.start_ULTIMATE.startEXIT_17_Int| Int) (|hhv_ULTIMATE.start_ULTIMATE.startEXIT_18_Int| Int) (|hhv_ULTIMATE.start_ULTIMATE.startEXIT_19_Int| Int) (|hhv_ULTIMATE.start_ULTIMATE.startEXIT_20_Int| Int) (|hbv_ULTIMATE.start_L2-1_21_Bool| Bool) (|.loc.5| Bool) (|.loc.6| Bool) (|.loc.7| Bool) (|.loc.8| Bool) (|hbv_ULTIMATE.start_L-1_1_Array_Int_Int| (Array Int Int)) (|.x.529| Int) (|.x.527| (Array Int Int)) (|.x.525| Int) (|.x.523| (Array Int Int)) (|.x.519| Int) (|.x.521| (Array Int Int)) (|.x.520| (Array Int Int)) (|hhv_ULTIMATE.start_ULTIMATE.startEXIT_21_Bool| Bool) (|.x.530| Int) (|.x.531| Int) (|.x.532| Int) (|.x.534| Int) (|.loc.10| Bool) (|.x.535| Int) (|.x.533| Int) (|.x.538| Int) (|.loc.11| Bool) (|.loc.9| Bool) (|.x.539| Int) (|.x.537| Int) (|.x.536| Int) (|.x.522| (Array Int Int)) (|.loc.12| Bool) (|.x.528| Int) (|.x.524| Int) (|.x.526| (Array Int Int)) (|.xtv.1| (Array Int Int))) (=> (state |hhv_ULTIMATE.start_ULTIMATE.startEXIT_0_Int| |hhv_ULTIMATE.start_ULTIMATE.startEXIT_1_Array_Int_Int| |hhv_ULTIMATE.start_ULTIMATE.startEXIT_2_Array_Int_Int| |hhv_ULTIMATE.start_ULTIMATE.startEXIT_3_Array_Int_Array_Int_Int| |hhv_ULTIMATE.start_ULTIMATE.startEXIT_4_Array_Int_Array_Int_Int| |hhv_ULTIMATE.start_ULTIMATE.startEXIT_5_Int| |hhv_ULTIMATE.start_ULTIMATE.startEXIT_6_Int| |hhv_ULTIMATE.start_ULTIMATE.startEXIT_7_Array_Int_Int| |hhv_ULTIMATE.start_ULTIMATE.startEXIT_8_Array_Int_Int| |hhv_ULTIMATE.start_ULTIMATE.startEXIT_9_Int| |hhv_ULTIMATE.start_ULTIMATE.startEXIT_10_Int| |hhv_ULTIMATE.start_ULTIMATE.startEXIT_11_Int| |hhv_ULTIMATE.start_ULTIMATE.startEXIT_12_Int| |hhv_ULTIMATE.start_ULTIMATE.startEXIT_13_Int| |hhv_ULTIMATE.start_ULTIMATE.startEXIT_14_Int| |hhv_ULTIMATE.start_ULTIMATE.startEXIT_15_Int| |hhv_ULTIMATE.start_ULTIMATE.startEXIT_16_Int| |hhv_ULTIMATE.start_ULTIMATE.startEXIT_17_Int| |hhv_ULTIMATE.start_ULTIMATE.startEXIT_18_Int| |hhv_ULTIMATE.start_ULTIMATE.startEXIT_19_Int| |hhv_ULTIMATE.start_ULTIMATE.startEXIT_20_Int| |hbv_ULTIMATE.start_L2-1_21_Bool| |.loc.5| |.loc.6| |.loc.7| |.loc.8| |hbv_ULTIMATE.start_L-1_1_Array_Int_Int|) (not (and hbv_ULTIMATE.start_L2-1_21_Bool (and .loc.8 (and .loc.7 (and .loc.6 (not .loc.5)))))))))
(check-sat)
